(set-option :produce-models true)
(set-logic QF_UF)
(declare-fun p67() Bool)
(declare-fun p0() Bool)
(declare-fun p47() Bool)
(declare-fun p64() Bool)
(declare-fun p58() Bool)
(declare-fun p11() Bool)
(declare-fun p2() Bool)
(declare-fun p79() Bool)
(declare-fun p20() Bool)
(declare-fun p69() Bool)
(declare-fun p32() Bool)
(declare-fun p35() Bool)
(declare-fun p15() Bool)
(declare-fun p75() Bool)
(declare-fun p53() Bool)
(declare-fun p21() Bool)
(declare-fun p30() Bool)
(declare-fun p48() Bool)
(declare-fun p41() Bool)
(declare-fun p19() Bool)
(declare-fun p34() Bool)
(declare-fun p68() Bool)
(declare-fun p72() Bool)
(declare-fun p1() Bool)
(declare-fun p46() Bool)
(declare-fun p29() Bool)
(declare-fun p22() Bool)
(declare-fun p37() Bool)
(declare-fun p60() Bool)
(declare-fun p36() Bool)
(declare-fun p73() Bool)
(declare-fun p17() Bool)
(declare-fun p62() Bool)
(declare-fun p76() Bool)
(declare-fun p14() Bool)
(declare-fun p26() Bool)
(declare-fun p70() Bool)
(declare-fun p8() Bool)
(declare-fun p45() Bool)
(declare-fun p61() Bool)
(declare-fun p55() Bool)
(declare-fun p18() Bool)
(declare-fun p40() Bool)
(declare-fun p52() Bool)
(declare-fun p16() Bool)
(declare-fun p13() Bool)
(declare-fun p31() Bool)
(declare-fun p38() Bool)
(declare-fun p39() Bool)
(declare-fun p6() Bool)
(declare-fun p3() Bool)
(declare-fun p33() Bool)
(declare-fun p78() Bool)
(declare-fun p28() Bool)
(declare-fun p63() Bool)
(declare-fun p7() Bool)
(declare-fun p50() Bool)
(declare-fun p77() Bool)
(declare-fun p54() Bool)
(declare-fun p65() Bool)
(declare-fun p49() Bool)
(declare-fun p74() Bool)
(declare-fun p43() Bool)
(declare-fun p4() Bool)
(declare-fun p27() Bool)
(declare-fun p10() Bool)
(declare-fun p25() Bool)
(declare-fun p71() Bool)
(declare-fun p66() Bool)
(declare-fun p5() Bool)
(declare-fun p9() Bool)
(declare-fun p42() Bool)
(declare-fun p56() Bool)
(declare-fun p44() Bool)
(declare-fun p12() Bool)
(declare-fun p24() Bool)
(declare-fun p59() Bool)
(declare-fun p23() Bool)
(declare-fun p57() Bool)
(declare-fun p51() Bool)
(assert
(and (or (not p67) (not p0) (not p47)) (or (not p64) p58 p11) (or (not p2) (not p79) p20) (or p69 p32 p35) (or p15 p75 (not p53)) (or (not p69) p20 p21) (or p30 p69 (not p48)) (or (not p41) (not p19) (not p34)) (or (not p68) p72 p48) (or p1 p21 (not p67)) (or (not p46) (not p29) (not p22)) (or (not p29) (not p37) (not p60)) (or (not p36) (not p22) p73) (or (not p17) (not p69) (not p32)) (or (not p17) p69 p62) (or p60 p76 (not p14)) (or p26 (not p70) p41) (or (not p8) p45 (not p61)) (or (not p14) p75 p55) (or (not p32) p61 (not p79)) (or p26 (not p21) p34) (or p73 p60 p18) (or (not p79) p0 p70) (or p40 (not p52) (not p36)) (or (not p16) p13 p47) (or (not p40) (not p31) p34) (or p18 (not p19) p38) (or p62 (not p39) (not p39)) (or (not p14) p34 p68) (or (not p53) (not p21) (not p6)) (or (not p3) (not p48) p33) (or p58 (not p78) (not p28)) (or (not p72) p18 (not p8)) (or (not p78) (not p21) p63) (or p13 (not p47) p68) (or p63 (not p11) p7) (or p50 p77 p7) (or (not p39) (not p54) (not p65)) (or (not p22) (not p49) (not p40)) (or p73 (not p74) (not p38)) (or (not p18) p43 (not p45)) (or p33 (not p34) (not p17)) (or p17 p30 (not p4)) (or p40 p45 (not p16)) (or (not p72) p69 (not p37)) (or (not p76) (not p46) (not p67)) (or p38 (not p3) (not p39)) (or (not p21) p31 p64) (or p65 (not p67) (not p8)) (or p3 (not p17) p74) (or (not p21) p79 p27) (or p38 p10 (not p73)) (or (not p68) p28 (not p25)) (or p74 p71 p4) (or (not p66) (not p21) p77) (or (not p72) p31 p14) (or (not p76) (not p52) (not p6)) (or p78 p25 p26) (or p18 (not p20) p0) (or (not p18) (not p10) (not p5)) (or (not p77) (not p71) p49) (or p49 p68 p73) (or p27 p9 (not p41)) (or p25 (not p7) (not p17)) (or (not p42) p10 (not p36)) (or (not p56) p60 (not p56)) (or (not p48) (not p63) p44) (or (not p76) p77 (not p18)) (or p10 p74 p43) (or (not p28) p36 p13) (or p2 (not p69) (not p13)) (or (not p53) (not p77) p1) (or (not p36) (not p69) (not p4)) (or (not p49) (not p52) p38) (or (not p12) (not p54) p74) (or (not p16) (not p63) p20) (or (not p24) (not p46) (not p26)) (or (not p13) (not p14) (not p9)) (or p79 p79 (not p29)) (or p52 (not p65) (not p19)) (or p37 p54 (not p56)) (or p32 p54 (not p65)) (or (not p52) p33 p70) (or p69 p52 p14) (or p33 (not p29) p17) (or (not p37) (not p4) p13) (or p7 p63 (not p14)) (or p59 p45 p37) (or p43 (not p63) (not p19)) (or (not p10) p79 (not p46)) (or p23 (not p9) p17) (or (not p9) (not p61) (not p10)) (or (not p53) p66 p69) (or (not p42) (not p65) (not p5)) (or p67 (not p63) p42) (or p53 p70 p45) (or (not p6) (not p22) (not p14)) (or p44 p74 p63) (or p8 (not p42) p57) (or p39 p66 (not p61)) (or (not p68) (not p77) (not p29)) (or (not p15) p11 (not p54)) (or (not p15) (not p45) (not p58)) (or p56 p41 (not p47)) (or (not p70) (not p33) p0) (or (not p28) (not p25) p77) (or p27 p17 (not p4)) (or (not p66) (not p6) p5) (or p0 p60 (not p68)) (or p16 p66 (not p79)) (or (not p39) p70 (not p41)) (or p23 (not p46) p36) (or p64 p9 p35) (or (not p60) p56 p76) (or p37 (not p77) p5) (or (not p40) (not p7) p75) (or (not p78) p2 p68) (or p51 (not p48) (not p74)) (or (not p26) (not p58) (not p54)) (or p11 (not p57) p20) (or (not p57) (not p10) (not p5)) (or p72 p14 p43) (or p46 p32 p35) (or p17 (not p12) (not p17)) (or (not p4) p18 (not p75)) (or p73 p23 p72) (or p25 p45 p65) (or (not p25) p53 p30) (or (not p71) (not p32) p67) (or (not p52) (not p27) p34) (or p65 p13 (not p8)) (or (not p45) p69 p5) (or (not p43) p35 (not p57)) (or (not p60) p71 (not p57)) (or p55 (not p35) p28) (or (not p64) p57 p11) (or (not p38) p10 (not p45)) (or (not p32) p76 p3) (or p41 p42 p14) (or p10 p31 (not p29)) (or (not p61) (not p76) (not p46)) (or (not p47) (not p54) (not p50)) (or p9 (not p18) p58) (or (not p41) p35 p47) (or p47 p10 p71) (or p20 (not p19) p9) (or p68 p31 (not p66)) (or (not p28) (not p63) (not p58)) (or (not p22) p39 p15) (or p34 (not p38) (not p5)) (or p23 (not p51) (not p1)) (or p38 p0 p24) (or (not p49) (not p33) p37) (or p52 p0 (not p28)) (or (not p34) p51 (not p36)) (or p20 p34 (not p6)) (or (not p37) (not p1) (not p17)) (or (not p76) p3 p77) (or p56 p48 p42) (or p19 p66 (not p78)) (or p75 (not p70) (not p29)) (or (not p29) (not p12) (not p44)) (or (not p22) p68 (not p3)) (or p26 (not p20) p7) (or (not p27) (not p7) (not p58)) (or (not p32) p35 p0) (or p23 (not p69) p62) (or p73 (not p25) (not p34)) (or (not p62) (not p78) (not p72)) (or (not p7) (not p56) p19) (or (not p66) (not p31) p4) (or p67 (not p22) (not p10)) (or (not p10) (not p57) p22) (or (not p9) p5 p28) (or (not p51) (not p18) p41) (or p22 (not p28) (not p63)) (or (not p62) p3 (not p16)) (or (not p18) (not p35) p36) (or p14 p2 p11) (or p45 (not p71) p25) (or p53 p41 (not p46)) (or p61 p67 p75) (or (not p57) p21 (not p58)) (or p38 (not p77) (not p13)) (or p64 p65 (not p1)) (or p26 (not p67) p46) (or (not p48) p16 p30) (or p62 (not p45) (not p54)) (or p53 (not p27) p1) (or p46 (not p33) p64) (or (not p59) p3 (not p16)) (or (not p79) (not p73) p41) (or p28 (not p66) p42) (or (not p19) p7 (not p74)) (or p67 (not p75) p8) (or p41 (not p25) p30) (or (not p17) p53 p29) (or (not p54) (not p44) (not p40)) (or (not p76) p14 p29) (or (not p77) (not p70) p47) (or (not p75) (not p40) (not p76)) (or (not p30) p76 p9) (or (not p19) p10 (not p2)) (or (not p58) p24 (not p7)) (or (not p3) p0 p6) (or (not p55) p28 (not p10)) (or (not p0) p79 (not p21)) (or (not p74) (not p51) p17) (or (not p57) (not p50) (not p8)) (or p51 (not p5) (not p56)) (or p78 (not p3) p10) (or (not p22) p45 p35) (or (not p40) (not p3) (not p45)) (or (not p17) p35 p24) (or p46 (not p13) (not p14)) (or p57 (not p12) p62) (or p66 p20 (not p20)) (or p53 p49 (not p28)) (or (not p35) p65 p31) (or p76 p8 (not p43)) (or (not p47) (not p13) (not p72)) (or (not p12) p60 p28) (or (not p16) p18 (not p79)) (or p23 p37 (not p45)) (or (not p7) p34 p21) (or (not p34) p26 (not p71)) (or (not p37) (not p78) p65) (or (not p71) p34 p21) (or p39 (not p11) p78) (or (not p58) p62 p76) (or p16 (not p43) p4) (or p73 p43 (not p31)) (or (not p57) (not p20) (not p21)) (or (not p49) (not p65) (not p66)) (or p8 p72 p36) (or (not p59) (not p31) (not p48)) (or p52 p76 p42) (or p7 (not p7) (not p56)) (or p12 (not p39) (not p40)) (or p34 p71 (not p1)) (or p43 (not p18) p77) (or p51 (not p3) p65) (or p17 p78 p61) (or p52 (not p75) (not p4)) (or p10 p19 (not p7)) (or p57 (not p65) (not p71)) (or (not p33) p53 (not p72)) (or p58 (not p58) p24) (or (not p19) p71 p74) (or p51 p56 p19) (or p8 (not p18) (not p2)) (or p74 p14 (not p51)) (or p31 p19 (not p49)) (or p49 p17 (not p78)) (or (not p34) p9 p53) (or (not p40) p50 p36) (or (not p24) p33 (not p75)) (or p6 (not p79) p79) (or p56 (not p8) p44) (or p64 (not p57) (not p75)) (or p27 p34 p41) (or (not p25) p52 (not p58)) (or (not p17) p55 p16) (or p74 (not p20) (not p62)) (or (not p52) p46 (not p0)) (or (not p76) p36 (not p41)) (or (not p44) (not p52) p22) (or (not p33) (not p72) (not p33)) (or p10 p74 p16) (or p36 (not p49) p66) (or (not p35) (not p5) p46) (or (not p24) (not p65) (not p58)) (or p49 p78 p42) (or p62 (not p43) p28) (or p50 (not p31) p62) (or p2 p30 (not p8)) (or p7 (not p50) (not p41)) (or (not p18) p58 p6) (or (not p46) (not p59) p36) (or (not p6) (not p67) (not p23)) (or (not p79) p54 p0) (or p30 p3 p14) (or p27 p33 (not p66)) (or p52 p61 (not p25)) (or (not p17) (not p8) (not p26)) (or p10 (not p12) (not p51)) (or p61 (not p37) p59) (or (not p63) p61 (not p74)) (or p43 (not p74) p7) (or (not p43) (not p52) (not p15)) (or p55 p70 (not p19)) (or p47 (not p12) (not p73)) (or p9 (not p57) (not p74)) (or (not p14) p75 p45) (or p25 p46 (not p28)) (or (not p75) p46 p55) (or p71 (not p17) p23) (or (not p59) p18 (not p11)) (or (not p44) p28 (not p69)) (or (not p9) (not p30) p71) (or (not p32) (not p21) (not p18)) (or (not p43) p39 p67) (or (not p32) p37 (not p4)) (or p42 (not p79) p25) (or (not p55) p52 (not p76)) (or p48 p8 p20) (or p30 p33 p75) (or p77 (not p66) p75) (or p11 p30 p31) (or (not p71) (not p58) p32) (or (not p1) p42 p0) (or (not p39) (not p65) p70) (or (not p65) (not p46) p33) (or (not p36) p78 p73) (or (not p55) (not p8) p77) (or (not p53) (not p47) (not p57)) (or (not p2) p40 p45) (or (not p34) (not p8) (not p5)) (or (not p77) p0 p48) (or p55 (not p49) (not p29)) (or (not p59) (not p27) p5) (or (not p61) p36 (not p67)) (or (not p15) (not p68) p4) (or (not p49) (not p69) p28) (or (not p11) p42 (not p44)) (or (not p6) (not p30) p0) (or (not p22) (not p28) (not p37)) (or (not p24) (not p21) (not p55)) (or (not p31) (not p43) (not p24)) (or p10 p38 (not p67)) (or p3 (not p26) (not p59)) (or p62 p79 p28) (or p18 (not p42) p14) (or (not p39) (not p53) p25) (or (not p33) p51 (not p37)) (or (not p35) (not p60) (not p58)) (or (not p25) (not p15) (not p78)))
)
(check-sat)
(get-model)
